min: c;

c = 4.56607375186213 * u3_t10_h0 + 3.89484478885192 * u3_t10_h1 + 3.97191923675933 * u3_t4_h2 + 3.97191923675933 * u3_t10_h2 + 2.79476251490324 * u3_t4_h3 + 2.79476251490324 * u3_t10_h3 + 3.11765216784293 * u3_t4_h4 + 3.11765216784293 * u3_t10_h4 + 3.50892018854615 * u3_t4_h5 + 3.50892018854615 * u3_t10_h5 + 3.89134475170996 * u3_t4_h6 + 3.89134475170996 * u3_t10_h6 + 4.49537132046714 * u3_t4_h7 + 4.49537132046714 * u3_t9_h7 + 4.49537132046714 * u3_t10_h7 + 5.27101404592074 * u3_t4_h8 + 5.27101404592074 * u3_t9_h8 + 5.05751815955091 * u3_t4_h9 + 5.05751815955091 * u3_t9_h9 + 5.07686193212754 * u3_t4_h10 + 5.07686193212754 * u3_t6_h10 + 5.07686193212754 * u3_t9_h10 + 3.94057501369126 * u3_t3_h11 + 3.94057501369126 * u3_t4_h11 + 3.94057501369126 * u3_t6_h11 + 3.94057501369126 * u3_t9_h11 + 6.07305774432699 * u3_t3_h12 + 6.07305774432699 * u3_t4_h12 + 6.07305774432699 * u3_t6_h12 + 6.07305774432699 * u3_t9_h12 + 4.37092739346687 * u3_t3_h13 + 4.37092739346687 * u3_t4_h13 + 4.37092739346687 * u3_t5_h13 + 4.37092739346687 * u3_t6_h13 + 4.37092739346687 * u3_t9_h13 + 5.19649107744791 * u3_t3_h14 + 5.19649107744791 * u3_t4_h14 + 5.19649107744791 * u3_t5_h14 + 5.19649107744791 * u3_t6_h14 + 5.19649107744791 * u3_t9_h14 + 6.35478031825008 * u3_t2_h15 + 6.35478031825008 * u3_t3_h15 + 6.35478031825008 * u3_t4_h15 + 6.35478031825008 * u3_t5_h15 + 6.35478031825008 * u3_t6_h15 + 6.35478031825008 * u3_t9_h15 + 6.13758066110225 * u3_t2_h16 + 6.13758066110225 * u3_t4_h16 + 6.13758066110225 * u3_t5_h16 + 6.13758066110225 * u3_t6_h16 + 6.13758066110225 * u3_t9_h16 + 6.13345458629035 * u3_t2_h17 + 6.13345458629035 * u3_t4_h17 + 6.13345458629035 * u3_t6_h17 + 6.13345458629035 * u3_t9_h17 + 6.57133863085795 * u3_t2_h18 + 6.57133863085795 * u3_t6_h18 + 6.57133863085795 * u3_t9_h18 + 6.07488798299281 * u3_t2_h19 + 6.07488798299281 * u3_t9_h19 + 5.54309091825746 * u3_t1_h20 + 5.54309091825746 * u3_t2_h20 + 5.54309091825746 * u3_t8_h20 + 5.54309091825746 * u3_t9_h20 + 4.94744369148809 * u3_t1_h21 + 4.94744369148809 * u3_t2_h21 + 4.94744369148809 * u3_t7_h21 + 4.94744369148809 * u3_t8_h21 + 4.94744369148809 * u3_t9_h21 + 5.79531401111106 * u3_t1_h22 + 5.79531401111106 * u3_t7_h22 + 5.79531401111106 * u3_t8_h22 + 5.58604317831018 * u3_t1_h23 + 5.58604317831018 * u3_t7_h23 + 5.58604317831018 * u3_t8_h23;
0 <= u3_t1_h20 <= 1;
0 <= u3_t1_h21 <= 1;
0 <= u3_t1_h22 <= 1;
0 <= u3_t1_h23 <= 1;
u3_t1_h20 + u3_t1_h21 + u3_t1_h22 + u3_t1_h23 = 2;
0 <= u3_t2_h15 <= 1;
0 <= u3_t2_h16 <= 1;
0 <= u3_t2_h17 <= 1;
0 <= u3_t2_h18 <= 1;
0 <= u3_t2_h19 <= 1;
0 <= u3_t2_h20 <= 1;
0 <= u3_t2_h21 <= 1;
u3_t2_h15 + u3_t2_h16 + u3_t2_h17 + u3_t2_h18 + u3_t2_h19 + u3_t2_h20 + u3_t2_h21 = 3;
0 <= u3_t3_h11 <= 1;
0 <= u3_t3_h12 <= 1;
0 <= u3_t3_h13 <= 1;
0 <= u3_t3_h14 <= 1;
0 <= u3_t3_h15 <= 1;
u3_t3_h11 + u3_t3_h12 + u3_t3_h13 + u3_t3_h14 + u3_t3_h15 = 2;
0 <= u3_t4_h2 <= 1;
0 <= u3_t4_h3 <= 1;
0 <= u3_t4_h4 <= 1;
0 <= u3_t4_h5 <= 1;
0 <= u3_t4_h6 <= 1;
0 <= u3_t4_h7 <= 1;
0 <= u3_t4_h8 <= 1;
0 <= u3_t4_h9 <= 1;
0 <= u3_t4_h10 <= 1;
0 <= u3_t4_h11 <= 1;
0 <= u3_t4_h12 <= 1;
0 <= u3_t4_h13 <= 1;
0 <= u3_t4_h14 <= 1;
0 <= u3_t4_h15 <= 1;
0 <= u3_t4_h16 <= 1;
0 <= u3_t4_h17 <= 1;
u3_t4_h2 + u3_t4_h3 + u3_t4_h4 + u3_t4_h5 + u3_t4_h6 + u3_t4_h7 + u3_t4_h8 + u3_t4_h9 + u3_t4_h10 + u3_t4_h11 + u3_t4_h12 + u3_t4_h13 + u3_t4_h14 + u3_t4_h15 + u3_t4_h16 + u3_t4_h17 = 3;
0 <= u3_t5_h13 <= 1;
0 <= u3_t5_h14 <= 1;
0 <= u3_t5_h15 <= 1;
0 <= u3_t5_h16 <= 1;
u3_t5_h13 + u3_t5_h14 + u3_t5_h15 + u3_t5_h16 = 2;
0 <= u3_t6_h10 <= 1;
0 <= u3_t6_h11 <= 1;
0 <= u3_t6_h12 <= 1;
0 <= u3_t6_h13 <= 1;
0 <= u3_t6_h14 <= 1;
0 <= u3_t6_h15 <= 1;
0 <= u3_t6_h16 <= 1;
0 <= u3_t6_h17 <= 1;
0 <= u3_t6_h18 <= 1;
u3_t6_h10 + u3_t6_h11 + u3_t6_h12 + u3_t6_h13 + u3_t6_h14 + u3_t6_h15 + u3_t6_h16 + u3_t6_h17 + u3_t6_h18 = 2;
0 <= u3_t7_h21 <= 1;
0 <= u3_t7_h22 <= 1;
0 <= u3_t7_h23 <= 1;
u3_t7_h21 + u3_t7_h22 + u3_t7_h23 = 2;
0 <= u3_t8_h20 <= 1;
0 <= u3_t8_h21 <= 1;
0 <= u3_t8_h22 <= 1;
0 <= u3_t8_h23 <= 1;
u3_t8_h20 + u3_t8_h21 + u3_t8_h22 + u3_t8_h23 = 1;
0 <= u3_t9_h7 <= 1;
0 <= u3_t9_h8 <= 1;
0 <= u3_t9_h9 <= 1;
0 <= u3_t9_h10 <= 1;
0 <= u3_t9_h11 <= 1;
0 <= u3_t9_h12 <= 1;
0 <= u3_t9_h13 <= 1;
0 <= u3_t9_h14 <= 1;
0 <= u3_t9_h15 <= 1;
0 <= u3_t9_h16 <= 1;
0 <= u3_t9_h17 <= 1;
0 <= u3_t9_h18 <= 1;
0 <= u3_t9_h19 <= 1;
0 <= u3_t9_h20 <= 1;
0 <= u3_t9_h21 <= 1;
u3_t9_h7 + u3_t9_h8 + u3_t9_h9 + u3_t9_h10 + u3_t9_h11 + u3_t9_h12 + u3_t9_h13 + u3_t9_h14 + u3_t9_h15 + u3_t9_h16 + u3_t9_h17 + u3_t9_h18 + u3_t9_h19 + u3_t9_h20 + u3_t9_h21 = 2;
0 <= u3_t10_h0 <= 1;
0 <= u3_t10_h1 <= 1;
0 <= u3_t10_h2 <= 1;
0 <= u3_t10_h3 <= 1;
0 <= u3_t10_h4 <= 1;
0 <= u3_t10_h5 <= 1;
0 <= u3_t10_h6 <= 1;
0 <= u3_t10_h7 <= 1;
u3_t10_h0 + u3_t10_h1 + u3_t10_h2 + u3_t10_h3 + u3_t10_h4 + u3_t10_h5 + u3_t10_h6 + u3_t10_h7 = 3;
